p edge 40 180 30
e 16 22
e 16 31
e 16 13
e 16 28
e 16 37
e 16 39
e 16 18
e 16 6
e 16 20
e 22 14
e 22 2
e 22 32
e 22 11
e 22 13
e 22 27
e 22 5
e 22 20
e 34 37
e 34 14
e 34 2
e 34 11
e 34 36
e 34 26
e 34 29
e 34 6
e 34 8
e 37 13
e 37 20
e 37 6
e 37 19
e 37 4
e 37 15
e 37 17
e 14 15
e 14 5
e 14 33
e 14 35
e 14 2
e 14 21
e 14 10
e 27 31
e 27 19
e 27 23
e 27 2
e 27 3
e 27 32
e 27 29
e 27 6
e 31 5
e 31 6
e 31 8
e 31 2
e 31 36
e 31 3
e 31 26
e 19 36
e 19 20
e 19 38
e 19 6
e 19 21
e 19 30
e 19 25
e 3 40
e 3 35
e 3 1
e 3 7
e 3 25
e 3 9
e 3 4
e 40 1
e 40 18
e 40 35
e 40 32
e 40 25
e 40 15
e 40 21
e 40 30
e 17 39
e 17 23
e 17 1
e 17 25
e 17 6
e 17 10
e 17 24
e 17 9
e 39 21
e 39 24
e 39 26
e 39 20
e 39 1
e 39 12
e 39 23
e 8 36
e 8 29
e 8 24
e 8 12
e 8 33
e 8 28
e 8 5
e 36 10
e 36 32
e 36 21
e 36 30
e 36 5
e 30 33
e 30 35
e 30 11
e 30 13
e 30 12
e 30 2
e 33 9
e 33 6
e 33 29
e 33 15
e 33 11
e 33 24
e 23 15
e 23 4
e 23 38
e 23 13
e 23 7
e 23 28
e 24 26
e 24 5
e 24 10
e 24 7
e 24 9
e 26 35
e 26 12
e 26 18
e 26 4
e 26 7
e 15 32
e 15 10
e 15 13
e 15 9
e 21 7
e 21 32
e 21 28
e 21 4
e 4 32
e 4 18
e 4 20
e 4 38
e 32 38
e 32 18
e 5 35
e 5 1
e 5 29
e 10 11
e 10 29
e 10 2
e 10 7
e 28 35
e 28 7
e 28 12
e 28 29
e 28 18
e 35 20
e 35 25
e 7 29
e 7 13
e 20 25
e 20 12
e 2 9
e 2 38
e 29 18
e 38 25
e 38 12
e 38 11
e 38 13
e 9 12
e 9 1
e 9 6
e 12 11
e 11 25
e 11 1
e 13 1
e 1 18
e 25 18
